75
30
0 31 33 34 35 43 45 47 49 52 54 55 58 60 63 64 66 68 69 70 71 72 73 74
1 31 32 35 37 38 39 43 45 47 48 52 54 56 60 63 64 68 70 71 72 73 74
2 31 32 34 35 38 39 42 45 47 49 50 54 58 60 63 64 65 66 68 70 71 72 73 74
3 31 34 38 41 43 45 47 49 52 56 57 59 60 63 64 68 69 70 71 72 73 74
4 31 35 38 40 42 43 45 47 49 52 53 54 55 56 57 60 64 66 68 70 71 72
5 30 35 37 38 42 43 45 46 48 49 52 53 54 56 57 58 64 65 68 69 70 71 72 73
6 31 33 35 36 37 38 43 45 47 49 52 56 58 59 63 64 66 68 69 70 71 72 73 74
7 31 35 37 38 39 43 45 47 52 54 56 57 58 63 64 69 70 71 72 74
8 31 32 39 42 46 47 50 52 55 56 59 60 66 68 70 71 72 73
9 30 33 34 35 39 41 43 45 47 49 52 55 56 58 60 63 65 69 70 71 72 74
10 31 33 34 35 39 43 49 52 53 58 59 63 64 65 71 72 74
11 32 33 35 39 41 42 45 47 49 52 53 55 59 60 63 67 71 74
12 30 33 34 35 39 42 43 45 47 49 54 55 56 61 69 71 72 74
13 30 31 39 42 43 45 48 52 53 56 58 60 63 64 65 68 69 71 73
14 33 34 38 39 41 42 53 54 56 58 60 61 63 64 65 66 69 70 72 73
15 31 32 35 37 38 39 43 45 47 49 58 60 62 63 64 66 68 69 70 72
16 31 32 35 37 38 41 53 67 68 71
17 31 34 40 48 53 54 58 61 63 66 70 74
18 31 33 37 38 49 52 53 57 58 59 62 63 65 66 69 71 73
19 30 33 38 49 50 52 56 57 63 64 66 71 72 73 74
20 30 31 33 38 39 41 42 46 47 48 55 59 63 65
21 33 35 37 41 45 47 49 60 65 69 70 71 72
22 30 37 41 42 47 49 54 57 59 66 67 70 73
23 31 43 44 45 46 52 53 56 58 60 68 70 74
24 48 49 53 55 59 69
25 30 33 43 53 61 62 64 68
26 50 74
27 33 38 51 63 65 68
28
29 51
